c FILE: helios.clq
c 
c  By: Helios Grounder (galis@edu.hse.ru)
c
c DESCRIPTION: For Clique testing
c 
c Graph Size: 12, Clique Size: 5
p edge 12 24
e 1 2
e 1 3
e 1 4
e 2 3
e 3 4
e 2 5
e 3 5
e 3 6
e 4 6
e 5 7
e 5 6
e 6 7
e 7 8
e 7 9
e 8 9
e 8 10
e 8 11
e 8 12
e 9 10
e 9 11
e 9 12
e 10 11
e 10 12
e 11 12